p cnf 15 20
-1 -2 -3 14 0 
-4 -3 14 0 
-1 -3 14 0 
-5 -3 14 0 
-6 -3 14 0 
-7 -3 14 0 
-8 -3 14 0 
-9 -3 14 0 
-10 -3 14 0 
-3 14 0 
-11 -3 14 0 
-2 -3 14 0 
-12 -3 14 0 
-13 -3 14 0 
-1 -8 -3 14 0 
-1 -4 -3 14 0 
-3 15 0 
-1 -13 -3 14 0 
-7 -3 15 0 
-1 -11 -3 14 0 
